(set-logic QF_SLIA)
(declare-fun var0 () String)
(assert (not (str.in_re var0 (re.++ ((_ re.loop 12 623) (re.++ (re.union (str.to_re ">") (re.union (str.to_re "W@") (re.union (str.to_re "C") (str.to_re "y(")))) (re.++ (re.union (str.to_re "pQ{") (re.union (str.to_re "aI") (re.union (str.to_re "To9") (str.to_re "u")))) (re.++ (re.union (str.to_re "*#~") (re.union (str.to_re "@x@") (re.union (str.to_re "Dy") (str.to_re "x.X")))) (re.union (str.to_re "3\u0022") (re.union (str.to_re "+") (re.union (str.to_re "4") (str.to_re "6=")))))))) (re.++ ((_ re.loop 3 431) (re.++ (re.union (str.to_re "T<{") (re.union (str.to_re "K0") (re.union (str.to_re "U") (str.to_re "5?=")))) (re.++ (re.union (str.to_re "_\\+") (re.union (str.to_re "M") (re.union (str.to_re "xgd") (str.to_re "Ux]")))) (re.++ (re.union (str.to_re "8@") (re.union (str.to_re "(33") (re.union (str.to_re "R") (str.to_re "W[")))) (re.union (str.to_re "AN") (re.union (str.to_re "Ds") (re.union (str.to_re "AP") (str.to_re "Q}")))))))) (re.++ ((_ re.loop 11 689) (re.++ (re.union (str.to_re "w") (re.union (str.to_re "`") (re.union (str.to_re "^I}") (str.to_re "h")))) (re.++ (re.union (str.to_re "]k") (re.union (str.to_re "W,*") (re.union (str.to_re "|EP") (str.to_re "N+s")))) (re.++ (re.union (str.to_re "EH)") (re.union (str.to_re ",5") (re.union (str.to_re ",{$") (str.to_re "P<1")))) (re.union (str.to_re "vD") (re.union (str.to_re "+") (re.union (str.to_re "X") (str.to_re "k")))))))) ((_ re.loop 18 391) (re.++ (re.union (str.to_re "nhC") (re.union (str.to_re "h\\") (re.union (str.to_re "'=^") (str.to_re "1\\")))) (re.++ (re.union (str.to_re ":") (re.union (str.to_re "*-F") (re.union (str.to_re "e|>") (str.to_re "TF")))) (re.++ (re.union (str.to_re "/Sq") (re.union (str.to_re "I") (re.union (str.to_re "y") (str.to_re "pvO")))) (re.union (str.to_re "VH") (re.union (str.to_re "OFJ") (re.union (str.to_re "*") (str.to_re "kv|"))))))))))))))
(assert (not (str.in_re var0 (re.++ ((_ re.loop 11 457) (re.++ (re.union (str.to_re "~@$") (re.union (str.to_re ",n") (re.union (str.to_re "~v") (str.to_re "P")))) (re.++ (re.union (str.to_re "w5O") (re.union (str.to_re "$,\u0022") (re.union (str.to_re "^QV") (str.to_re "!m")))) (re.++ (re.union (str.to_re "QV") (re.union (str.to_re "Hk") (re.union (str.to_re "N") (str.to_re "yR,")))) (re.union (str.to_re "S") (re.union (str.to_re ")-") (re.union (str.to_re "$") (str.to_re "0")))))))) (re.++ ((_ re.loop 5 326) (re.++ (re.union (str.to_re ".WD") (re.union (str.to_re "3") (re.union (str.to_re "xM") (str.to_re "O)#")))) (re.++ (re.union (str.to_re "Gq") (re.union (str.to_re "b") (re.union (str.to_re "|") (str.to_re "yA>")))) (re.++ (re.union (str.to_re "xtF") (re.union (str.to_re "s<") (re.union (str.to_re "H") (str.to_re "C")))) (re.union (str.to_re "y_:") (re.union (str.to_re "&Q") (re.union (str.to_re "Y:a") (str.to_re ":r")))))))) (re.++ ((_ re.loop 2 415) (re.++ (re.union (str.to_re "]o") (re.union (str.to_re "{H") (re.union (str.to_re "noX") (str.to_re "gK")))) (re.++ (re.union (str.to_re "T]9") (re.union (str.to_re "\u0022") (re.union (str.to_re "-5K") (str.to_re "Spo")))) (re.++ (re.union (str.to_re "f,f") (re.union (str.to_re "q") (re.union (str.to_re "u") (str.to_re "b!")))) (re.union (str.to_re "fN>") (re.union (str.to_re "3/") (re.union (str.to_re "Uz") (str.to_re "i")))))))) ((_ re.loop 18 960) (re.++ (re.union (str.to_re "\u0022") (re.union (str.to_re "k") (re.union (str.to_re "oZq") (str.to_re "D7")))) (re.++ (re.union (str.to_re "C>D") (re.union (str.to_re "A") (re.union (str.to_re "$?k") (str.to_re "$X")))) (re.++ (re.union (str.to_re "R") (re.union (str.to_re "3V") (re.union (str.to_re "ll") (str.to_re "pC")))) (re.union (str.to_re "Kx") (re.union (str.to_re "yu|") (re.union (str.to_re "0v") (str.to_re "Wki"))))))))))))))
(assert (not (str.in_re var0 (re.++ (re.* re.allchar) (re.++ (re.union (str.to_re "<") (re.union (str.to_re ">") (re.union (str.to_re "'") (re.union (str.to_re "\u0022") (str.to_re "&"))))) (re.* re.allchar))))))
(assert (<= 50 (str.len var0)))
(check-sat)
(get-model)
